p cnf 677 1851
3 -5 51 0
-3 -5 -51 0
3 5 -51 0
-3 5 51 0
6 13 52 0
-6 13 -52 0
6 -13 -52 0
-6 -13 52 0
-15 -16 53 0
15 -16 -53 0
-15 16 -53 0
15 16 53 0
-17 18 54 0
17 18 -54 0
-17 -18 -54 0
17 -18 54 0
20 -21 55 0
-20 -21 -55 0
20 21 -55 0
-20 21 55 0
23 25 56 0
-23 25 -56 0
23 -25 -56 0
-23 -25 56 0
27 -30 57 0
-27 -30 -57 0
27 30 -57 0
-27 30 57 0
32 38 58 0
-32 38 -58 0
32 -38 -58 0
-32 -38 58 0
39 -42 59 0
-39 -42 -59 0
39 42 -59 0
-39 42 59 0
45 46 60 0
-45 46 -60 0
45 -46 -60 0
-45 -46 60 0
47 48 61 0
-47 48 -61 0
47 -48 -61 0
-47 -48 61 0
-49 50 62 0
49 50 -62 0
-49 -50 -62 0
49 -50 62 0
51 -52 63 0
-51 -52 -63 0
51 52 -63 0
-51 52 63 0
53 -54 64 0
-53 -54 -64 0
53 54 -64 0
-53 54 64 0
55 -56 65 0
-55 -56 -65 0
55 56 -65 0
-55 56 65 0
57 -58 66 0
-57 -58 -66 0
57 58 -66 0
-57 58 66 0
59 -60 67 0
-59 -60 -67 0
59 60 -67 0
-59 60 67 0
61 -62 68 0
-61 -62 -68 0
61 62 -68 0
-61 62 68 0
63 -64 69 0
-63 -64 -69 0
63 64 -69 0
-63 64 69 0
65 -66 70 0
-65 -66 -70 0
65 66 -70 0
-65 66 70 0
67 -68 71 0
-67 -68 -71 0
67 68 -71 0
-67 68 71 0
-69 -70 71 0
69 -70 -71 0
-69 70 -71 0
69 70 71 0
1 -3 72 0
-1 -3 -72 0
1 3 -72 0
-1 3 72 0
-5 9 73 0
5 9 -73 0
-5 -9 -73 0
5 -9 73 0
13 15 74 0
-13 15 -74 0
13 -15 -74 0
-13 -15 74 0
-17 20 75 0
17 20 -75 0
-17 -20 -75 0
17 -20 75 0
-21 -22 76 0
21 -22 -76 0
-21 22 -76 0
21 22 76 0
-24 25 77 0
24 25 -77 0
-24 -25 -77 0
24 -25 77 0
26 28 78 0
-26 28 -78 0
26 -28 -78 0
-26 -28 78 0
29 -32 79 0
-29 -32 -79 0
29 32 -79 0
-29 32 79 0
33 34 80 0
-33 34 -80 0
33 -34 -80 0
-33 -34 80 0
36 38 81 0
-36 38 -81 0
36 -38 -81 0
-36 -38 81 0
-39 40 82 0
39 40 -82 0
-39 -40 -82 0
39 -40 82 0
41 -42 83 0
-41 -42 -83 0
41 42 -83 0
-41 42 83 0
-46 -47 84 0
46 -47 -84 0
-46 47 -84 0
46 47 84 0
49 50 85 0
-49 50 -85 0
49 -50 -85 0
-49 -50 85 0
72 -73 86 0
-72 -73 -86 0
72 73 -86 0
-72 73 86 0
74 -75 87 0
-74 -75 -87 0
74 75 -87 0
-74 75 87 0
76 -77 88 0
-76 -77 -88 0
76 77 -88 0
-76 77 88 0
78 -79 89 0
-78 -79 -89 0
78 79 -89 0
-78 79 89 0
80 -81 90 0
-80 -81 -90 0
80 81 -90 0
-80 81 90 0
82 -83 91 0
-82 -83 -91 0
82 83 -91 0
-82 83 91 0
84 -85 92 0
-84 -85 -92 0
84 85 -92 0
-84 85 92 0
86 -87 93 0
-86 -87 -93 0
86 87 -93 0
-86 87 93 0
88 -89 94 0
-88 -89 -94 0
88 89 -94 0
-88 89 94 0
90 -91 95 0
-90 -91 -95 0
90 91 -95 0
-90 91 95 0
92 -93 96 0
-92 -93 -96 0
92 93 -96 0
-92 93 96 0
94 -95 97 0
-94 -95 -97 0
94 95 -97 0
-94 95 97 0
96 97 0
-96 -97 0
-1 2 98 0
1 2 -98 0
-1 -2 -98 0
1 -2 98 0
4 -5 99 0
-4 -5 -99 0
4 5 -99 0
-4 5 99 0
8 10 100 0
-8 10 -100 0
8 -10 -100 0
-8 -10 100 0
12 -15 101 0
-12 -15 -101 0
12 15 -101 0
-12 15 101 0
17 18 102 0
-17 18 -102 0
17 -18 -102 0
-17 -18 102 0
20 22 103 0
-20 22 -103 0
20 -22 -103 0
-20 -22 103 0
-23 -24 104 0
23 -24 -104 0
-23 24 -104 0
23 24 104 0
26 27 105 0
-26 27 -105 0
26 -27 -105 0
-26 -27 105 0
30 -31 106 0
-30 -31 -106 0
30 31 -106 0
-30 31 106 0
34 36 107 0
-34 36 -107 0
34 -36 -107 0
-34 -36 107 0
39 41 108 0
-39 41 -108 0
39 -41 -108 0
-39 -41 108 0
-42 -43 109 0
42 -43 -109 0
-42 43 -109 0
42 43 109 0
44 -45 110 0
-44 -45 -110 0
44 45 -110 0
-44 45 110 0
-46 -49 111 0
46 -49 -111 0
-46 49 -111 0
46 49 111 0
98 -99 112 0
-98 -99 -112 0
98 99 -112 0
-98 99 112 0
100 -101 113 0
-100 -101 -113 0
100 101 -113 0
-100 101 113 0
102 -103 114 0
-102 -103 -114 0
102 103 -114 0
-102 103 114 0
104 -105 115 0
-104 -105 -115 0
104 105 -115 0
-104 105 115 0
106 -107 116 0
-106 -107 -116 0
106 107 -116 0
-106 107 116 0
108 -109 117 0
-108 -109 -117 0
108 109 -117 0
-108 109 117 0
110 -111 118 0
-110 -111 -118 0
110 111 -118 0
-110 111 118 0
112 -113 119 0
-112 -113 -119 0
112 113 -119 0
-112 113 119 0
114 -115 120 0
-114 -115 -120 0
114 115 -120 0
-114 115 120 0
116 -117 121 0
-116 -117 -121 0
116 117 -121 0
-116 117 121 0
118 -119 122 0
-118 -119 -122 0
118 119 -122 0
-118 119 122 0
120 -121 123 0
-120 -121 -123 0
120 121 -123 0
-120 121 123 0
122 123 0
-122 -123 0
3 -4 124 0
-3 -4 -124 0
3 4 -124 0
-3 4 124 0
-6 7 125 0
6 7 -125 0
-6 -7 -125 0
6 -7 125 0
-9 13 126 0
9 13 -126 0
-9 -13 -126 0
9 -13 126 0
16 19 127 0
-16 19 -127 0
16 -19 -127 0
-16 -19 127 0
-20 24 128 0
20 24 -128 0
-20 -24 -128 0
20 -24 128 0
-28 -29 129 0
28 -29 -129 0
-28 29 -129 0
28 29 129 0
-30 31 130 0
30 31 -130 0
-30 -31 -130 0
30 -31 130 0
32 -33 131 0
-32 -33 -131 0
32 33 -131 0
-32 33 131 0
34 -35 132 0
-34 -35 -132 0
34 35 -132 0
-34 35 132 0
-36 37 133 0
36 37 -133 0
-36 -37 -133 0
36 -37 133 0
-38 -39 134 0
38 -39 -134 0
-38 39 -134 0
38 39 134 0
-40 47 135 0
40 47 -135 0
-40 -47 -135 0
40 -47 135 0
-48 49 136 0
48 49 -136 0
-48 -49 -136 0
48 -49 136 0
123 -124 137 0
-123 -124 -137 0
123 124 -137 0
-123 124 137 0
125 -126 138 0
-125 -126 -138 0
125 126 -138 0
-125 126 138 0
127 -128 139 0
-127 -128 -139 0
127 128 -139 0
-127 128 139 0
129 -130 140 0
-129 -130 -140 0
129 130 -140 0
-129 130 140 0
131 -132 141 0
-131 -132 -141 0
131 132 -141 0
-131 132 141 0
133 -134 142 0
-133 -134 -142 0
133 134 -142 0
-133 134 142 0
135 -136 143 0
-135 -136 -143 0
135 136 -143 0
-135 136 143 0
137 -138 144 0
-137 -138 -144 0
137 138 -144 0
-137 138 144 0
139 -140 145 0
-139 -140 -145 0
139 140 -145 0
-139 140 145 0
141 -142 146 0
-141 -142 -146 0
141 142 -146 0
-141 142 146 0
143 -144 147 0
-143 -144 -147 0
143 144 -147 0
-143 144 147 0
145 -146 148 0
-145 -146 -148 0
145 146 -148 0
-145 146 148 0
147 148 0
-147 -148 0
-2 -4 149 0
2 -4 -149 0
-2 4 -149 0
2 4 149 0
-5 -7 150 0
5 -7 -150 0
-5 7 -150 0
5 7 150 0
-8 9 151 0
8 9 -151 0
-8 -9 -151 0
8 -9 151 0
-11 -12 152 0
11 -12 -152 0
-11 12 -152 0
11 12 152 0
13 -14 153 0
-13 -14 -153 0
13 14 -153 0
-13 14 153 0
-16 -17 154 0
16 -17 -154 0
-16 17 -154 0
16 17 154 0
19 21 155 0
-19 21 -155 0
19 -21 -155 0
-19 -21 155 0
-22 -30 156 0
22 -30 -156 0
-22 30 -156 0
22 30 156 0
-33 36 157 0
33 36 -157 0
-33 -36 -157 0
33 -36 157 0
-37 39 158 0
37 39 -158 0
-37 -39 -158 0
37 -39 158 0
40 41 159 0
-40 41 -159 0
40 -41 -159 0
-40 -41 159 0
42 43 160 0
-42 43 -160 0
42 -43 -160 0
-42 -43 160 0
44 -46 161 0
-44 -46 -161 0
44 46 -161 0
-44 46 161 0
47 -50 162 0
-47 -50 -162 0
47 50 -162 0
-47 50 162 0
149 -150 163 0
-149 -150 -163 0
149 150 -163 0
-149 150 163 0
151 -152 164 0
-151 -152 -164 0
151 152 -164 0
-151 152 164 0
153 -154 165 0
-153 -154 -165 0
153 154 -165 0
-153 154 165 0
155 -156 166 0
-155 -156 -166 0
155 156 -166 0
-155 156 166 0
157 -158 167 0
-157 -158 -167 0
157 158 -167 0
-157 158 167 0
159 -160 168 0
-159 -160 -168 0
159 160 -168 0
-159 160 168 0
161 -162 169 0
-161 -162 -169 0
161 162 -169 0
-161 162 169 0
163 -164 170 0
-163 -164 -170 0
163 164 -170 0
-163 164 170 0
165 -166 171 0
-165 -166 -171 0
165 166 -171 0
-165 166 171 0
167 -168 172 0
-167 -168 -172 0
167 168 -172 0
-167 168 172 0
169 -170 173 0
-169 -170 -173 0
169 170 -173 0
-169 170 173 0
171 -172 174 0
-171 -172 -174 0
171 172 -174 0
-171 172 174 0
173 174 0
-173 -174 0
3 4 175 0
-3 4 -175 0
3 -4 -175 0
-3 -4 175 0
5 -7 176 0
-5 -7 -176 0
5 7 -176 0
-5 7 176 0
-8 -9 177 0
8 -9 -177 0
-8 9 -177 0
8 9 177 0
11 -16 178 0
-11 -16 -178 0
11 16 -178 0
-11 16 178 0
17 -18 179 0
-17 -18 -179 0
17 18 -179 0
-17 18 179 0
23 25 180 0
-23 25 -180 0
23 -25 -180 0
-23 -25 180 0
26 27 181 0
-26 27 -181 0
26 -27 -181 0
-26 -27 181 0
-29 -34 182 0
29 -34 -182 0
-29 34 -182 0
29 34 182 0
-35 40 183 0
35 40 -183 0
-35 -40 -183 0
35 -40 183 0
42 44 184 0
-42 44 -184 0
42 -44 -184 0
-42 -44 184 0
46 -47 185 0
-46 -47 -185 0
46 47 -185 0
-46 47 185 0
174 -175 186 0
-174 -175 -186 0
174 175 -186 0
-174 175 186 0
176 -177 187 0
-176 -177 -187 0
176 177 -187 0
-176 177 187 0
178 -179 188 0
-178 -179 -188 0
178 179 -188 0
-178 179 188 0
180 -181 189 0
-180 -181 -189 0
180 181 -189 0
-180 181 189 0
182 -183 190 0
-182 -183 -190 0
182 183 -190 0
-182 183 190 0
184 -185 191 0
-184 -185 -191 0
184 185 -191 0
-184 185 191 0
186 -187 192 0
-186 -187 -192 0
186 187 -192 0
-186 187 192 0
188 -189 193 0
-188 -189 -193 0
188 189 -193 0
-188 189 193 0
190 -191 194 0
-190 -191 -194 0
190 191 -194 0
-190 191 194 0
-192 -193 194 0
192 -193 -194 0
-192 193 -194 0
192 193 194 0
3 -5 195 0
-3 -5 -195 0
3 5 -195 0
-3 5 195 0
-8 9 196 0
8 9 -196 0
-8 -9 -196 0
8 -9 196 0
11 12 197 0
-11 12 -197 0
11 -12 -197 0
-11 -12 197 0
-14 15 198 0
14 15 -198 0
-14 -15 -198 0
14 -15 198 0
-16 -19 199 0
16 -19 -199 0
-16 19 -199 0
16 19 199 0
20 -21 200 0
-20 -21 -200 0
20 21 -200 0
-20 21 200 0
-27 33 201 0
27 33 -201 0
-27 -33 -201 0
27 -33 201 0
37 -38 202 0
-37 -38 -202 0
37 38 -202 0
-37 38 202 0
40 -41 203 0
-40 -41 -203 0
40 41 -203 0
-40 41 203 0
42 -43 204 0
-42 -43 -204 0
42 43 -204 0
-42 43 204 0
-46 50 205 0
46 50 -205 0
-46 -50 -205 0
46 -50 205 0
195 -196 206 0
-195 -196 -206 0
195 196 -206 0
-195 196 206 0
197 -198 207 0
-197 -198 -207 0
197 198 -207 0
-197 198 207 0
199 -200 208 0
-199 -200 -208 0
199 200 -208 0
-199 200 208 0
201 -202 209 0
-201 -202 -209 0
201 202 -209 0
-201 202 209 0
203 -204 210 0
-203 -204 -210 0
203 204 -210 0
-203 204 210 0
205 -206 211 0
-205 -206 -211 0
205 206 -211 0
-205 206 211 0
207 -208 212 0
-207 -208 -212 0
207 208 -212 0
-207 208 212 0
209 -210 213 0
-209 -210 -213 0
209 210 -213 0
-209 210 213 0
-211 -212 213 0
211 -212 -213 0
-211 212 -213 0
211 212 213 0
1 2 214 0
-1 2 -214 0
1 -2 -214 0
-1 -2 214 0
-3 -4 215 0
3 -4 -215 0
-3 4 -215 0
3 4 215 0
5 6 216 0
-5 6 -216 0
5 -6 -216 0
-5 -6 216 0
-7 -8 217 0
7 -8 -217 0
-7 8 -217 0
7 8 217 0
11 -13 218 0
-11 -13 -218 0
11 13 -218 0
-11 13 218 0
15 -17 219 0
-15 -17 -219 0
15 17 -219 0
-15 17 219 0
-18 19 220 0
18 19 -220 0
-18 -19 -220 0
18 -19 220 0
-20 22 221 0
20 22 -221 0
-20 -22 -221 0
20 -22 221 0
23 -25 222 0
-23 -25 -222 0
23 25 -222 0
-23 25 222 0
28 -30 223 0
-28 -30 -223 0
28 30 -223 0
-28 30 223 0
-33 36 224 0
33 36 -224 0
-33 -36 -224 0
33 -36 224 0
-37 40 225 0
37 40 -225 0
-37 -40 -225 0
37 -40 225 0
41 -42 226 0
-41 -42 -226 0
41 42 -226 0
-41 42 226 0
44 -45 227 0
-44 -45 -227 0
44 45 -227 0
-44 45 227 0
47 48 228 0
-47 48 -228 0
47 -48 -228 0
-47 -48 228 0
213 -214 229 0
-213 -214 -229 0
213 214 -229 0
-213 214 229 0
215 -216 230 0
-215 -216 -230 0
215 216 -230 0
-215 216 230 0
217 -218 231 0
-217 -218 -231 0
217 218 -231 0
-217 218 231 0
219 -220 232 0
-219 -220 -232 0
219 220 -232 0
-219 220 232 0
221 -222 233 0
-221 -222 -233 0
221 222 -233 0
-221 222 233 0
223 -224 234 0
-223 -224 -234 0
223 224 -234 0
-223 224 234 0
225 -226 235 0
-225 -226 -235 0
225 226 -235 0
-225 226 235 0
227 -228 236 0
-227 -228 -236 0
227 228 -236 0
-227 228 236 0
229 -230 237 0
-229 -230 -237 0
229 230 -237 0
-229 230 237 0
231 -232 238 0
-231 -232 -238 0
231 232 -238 0
-231 232 238 0
233 -234 239 0
-233 -234 -239 0
233 234 -239 0
-233 234 239 0
235 -236 240 0
-235 -236 -240 0
235 236 -240 0
-235 236 240 0
237 -238 241 0
-237 -238 -241 0
237 238 -241 0
-237 238 241 0
239 -240 242 0
-239 -240 -242 0
239 240 -242 0
-239 240 242 0
241 242 0
-241 -242 0
-1 -3 243 0
1 -3 -243 0
-1 3 -243 0
1 3 243 0
6 -8 244 0
-6 -8 -244 0
6 8 -244 0
-6 8 244 0
-10 12 245 0
10 12 -245 0
-10 -12 -245 0
10 -12 245 0
15 -18 246 0
-15 -18 -246 0
15 18 -246 0
-15 18 246 0
-19 21 247 0
19 21 -247 0
-19 -21 -247 0
19 -21 247 0
22 -25 248 0
-22 -25 -248 0
22 25 -248 0
-22 25 248 0
-28 -30 249 0
28 -30 -249 0
-28 30 -249 0
28 30 249 0
-31 33 250 0
31 33 -250 0
-31 -33 -250 0
31 -33 250 0
-39 41 251 0
39 41 -251 0
-39 -41 -251 0
39 -41 251 0
-42 -43 252 0
42 -43 -252 0
-42 43 -252 0
42 43 252 0
44 -45 253 0
-44 -45 -253 0
44 45 -253 0
-44 45 253 0
46 47 254 0
-46 47 -254 0
46 -47 -254 0
-46 -47 254 0
-48 49 255 0
48 49 -255 0
-48 -49 -255 0
48 -49 255 0
242 -243 256 0
-242 -243 -256 0
242 243 -256 0
-242 243 256 0
244 -245 257 0
-244 -245 -257 0
244 245 -257 0
-244 245 257 0
246 -247 258 0
-246 -247 -258 0
246 247 -258 0
-246 247 258 0
248 -249 259 0
-248 -249 -259 0
248 249 -259 0
-248 249 259 0
250 -251 260 0
-250 -251 -260 0
250 251 -260 0
-250 251 260 0
252 -253 261 0
-252 -253 -261 0
252 253 -261 0
-252 253 261 0
254 -255 262 0
-254 -255 -262 0
254 255 -262 0
-254 255 262 0
256 -257 263 0
-256 -257 -263 0
256 257 -263 0
-256 257 263 0
258 -259 264 0
-258 -259 -264 0
258 259 -264 0
-258 259 264 0
260 -261 265 0
-260 -261 -265 0
260 261 -265 0
-260 261 265 0
262 -263 266 0
-262 -263 -266 0
262 263 -266 0
-262 263 266 0
264 -265 267 0
-264 -265 -267 0
264 265 -267 0
-264 265 267 0
266 267 0
-266 -267 0
-1 -3 268 0
1 -3 -268 0
-1 3 -268 0
1 3 268 0
-5 6 269 0
5 6 -269 0
-5 -6 -269 0
5 -6 269 0
7 8 270 0
-7 8 -270 0
7 -8 -270 0
-7 -8 270 0
-11 -12 271 0
11 -12 -271 0
-11 12 -271 0
11 12 271 0
14 -15 272 0
-14 -15 -272 0
14 15 -272 0
-14 15 272 0
17 18 273 0
-17 18 -273 0
17 -18 -273 0
-17 -18 273 0
20 -22 274 0
-20 -22 -274 0
20 22 -274 0
-20 22 274 0
23 -24 275 0
-23 -24 -275 0
23 24 -275 0
-23 24 275 0
25 27 276 0
-25 27 -276 0
25 -27 -276 0
-25 -27 276 0
28 -29 277 0
-28 -29 -277 0
28 29 -277 0
-28 29 277 0
30 -31 278 0
-30 -31 -278 0
30 31 -278 0
-30 31 278 0
-32 33 279 0
32 33 -279 0
-32 -33 -279 0
32 -33 279 0
36 -37 280 0
-36 -37 -280 0
36 37 -280 0
-36 37 280 0
39 40 281 0
-39 40 -281 0
39 -40 -281 0
-39 -40 281 0
-42 -43 282 0
42 -43 -282 0
-42 43 -282 0
42 43 282 0
44 47 283 0
-44 47 -283 0
44 -47 -283 0
-44 -47 283 0
268 -269 284 0
-268 -269 -284 0
268 269 -284 0
-268 269 284 0
270 -271 285 0
-270 -271 -285 0
270 271 -285 0
-270 271 285 0
272 -273 286 0
-272 -273 -286 0
272 273 -286 0
-272 273 286 0
274 -275 287 0
-274 -275 -287 0
274 275 -287 0
-274 275 287 0
276 -277 288 0
-276 -277 -288 0
276 277 -288 0
-276 277 288 0
278 -279 289 0
-278 -279 -289 0
278 279 -289 0
-278 279 289 0
280 -281 290 0
-280 -281 -290 0
280 281 -290 0
-280 281 290 0
282 -283 291 0
-282 -283 -291 0
282 283 -291 0
-282 283 291 0
284 -285 292 0
-284 -285 -292 0
284 285 -292 0
-284 285 292 0
286 -287 293 0
-286 -287 -293 0
286 287 -293 0
-286 287 293 0
288 -289 294 0
-288 -289 -294 0
288 289 -294 0
-288 289 294 0
290 -291 295 0
-290 -291 -295 0
290 291 -295 0
-290 291 295 0
292 -293 296 0
-292 -293 -296 0
292 293 -296 0
-292 293 296 0
294 -295 297 0
-294 -295 -297 0
294 295 -297 0
-294 295 297 0
296 297 0
-296 -297 0
-12 298 0
-24 298 0
-12 -24 299 0
-23 298 0
-12 -23 299 0
-24 -23 299 0
-12 -24 -23 300 0
-22 301 0
-21 301 0
-22 -21 302 0
-20 301 0
-22 -20 302 0
-21 -20 302 0
-22 -21 -20 303 0
-298 304 0
-299 305 0
-300 306 0
-301 304 0
-302 305 0
-303 306 0
-298 -301 305 0
-298 -302 306 0
-298 -303 307 0
-299 -301 306 0
-299 -302 307 0
-299 -303 308 0
-300 -301 307 0
-300 -302 308 0
-300 -303 309 0
-19 310 0
-18 310 0
-19 -18 311 0
-17 310 0
-19 -17 311 0
-18 -17 311 0
-19 -18 -17 312 0
-16 313 0
-15 313 0
-16 -15 314 0
-14 313 0
-16 -14 314 0
-15 -14 314 0
-16 -15 -14 315 0
-310 316 0
-311 317 0
-312 318 0
-313 316 0
-314 317 0
-315 318 0
-310 -313 317 0
-310 -314 318 0
-310 -315 319 0
-311 -313 318 0
-311 -314 319 0
-311 -315 320 0
-312 -313 319 0
-312 -314 320 0
-312 -315 321 0
-304 322 0
-306 323 0
-308 324 0
-316 322 0
-318 323 0
-320 324 0
-304 -316 323 0
-304 -318 324 0
-304 -320 325 0
-306 -316 324 0
-306 -318 325 0
-306 -320 326 0
-308 -316 325 0
-308 -318 326 0
-308 -320 327 0
-305 328 0
-307 329 0
-309 330 0
-317 328 0
-319 329 0
-321 330 0
-305 -317 329 0
-305 -319 330 0
-305 -321 331 0
-307 -317 330 0
-307 -319 331 0
-307 -321 332 0
-309 -317 331 0
-309 -319 332 0
-309 -321 333 0
-323 334 0
-328 334 0
-323 -328 335 0
-324 336 0
-329 336 0
-324 -329 337 0
-325 338 0
-330 338 0
-325 -330 339 0
-326 340 0
-331 340 0
-326 -331 341 0
-327 342 0
-332 342 0
-327 -332 343 0
-13 344 0
-25 344 0
-13 -25 345 0
-11 344 0
-13 -11 345 0
-25 -11 345 0
-13 -25 -11 346 0
-10 347 0
-9 347 0
-10 -9 348 0
-8 347 0
-10 -8 348 0
-9 -8 348 0
-10 -9 -8 349 0
-344 350 0
-345 351 0
-346 352 0
-347 350 0
-348 351 0
-349 352 0
-344 -347 351 0
-344 -348 352 0
-344 -349 353 0
-345 -347 352 0
-345 -348 353 0
-345 -349 354 0
-346 -347 353 0
-346 -348 354 0
-346 -349 355 0
-7 356 0
-6 356 0
-7 -6 357 0
-5 356 0
-7 -5 357 0
-6 -5 357 0
-7 -6 -5 358 0
-4 359 0
-3 359 0
-4 -3 360 0
-2 359 0
-4 -2 360 0
-3 -2 360 0
-4 -3 -2 361 0
-356 362 0
-357 363 0
-358 364 0
-359 362 0
-360 363 0
-361 364 0
-356 -359 363 0
-356 -360 364 0
-356 -361 365 0
-357 -359 364 0
-357 -360 365 0
-357 -361 366 0
-358 -359 365 0
-358 -360 366 0
-358 -361 367 0
-350 368 0
-352 369 0
-354 370 0
-362 368 0
-364 369 0
-366 370 0
-350 -362 369 0
-350 -364 370 0
-350 -366 371 0
-352 -362 370 0
-352 -364 371 0
-352 -366 372 0
-354 -362 371 0
-354 -364 372 0
-354 -366 373 0
-351 374 0
-353 375 0
-355 376 0
-363 374 0
-365 375 0
-367 376 0
-351 -363 375 0
-351 -365 376 0
-351 -367 377 0
-353 -363 376 0
-353 -365 377 0
-353 -367 378 0
-355 -363 377 0
-355 -365 378 0
-355 -367 379 0
-369 380 0
-374 380 0
-369 -374 381 0
-370 382 0
-375 382 0
-370 -375 383 0
-371 384 0
-376 384 0
-371 -376 385 0
-372 386 0
-377 386 0
-372 -377 387 0
-373 388 0
-378 388 0
-373 -378 389 0
-1 390 0
-37 390 0
-1 -37 391 0
-49 390 0
-1 -49 391 0
-37 -49 391 0
-1 -37 -49 392 0
-48 393 0
-47 393 0
-48 -47 394 0
-46 393 0
-48 -46 394 0
-47 -46 394 0
-48 -47 -46 395 0
-390 396 0
-391 397 0
-392 398 0
-393 396 0
-394 397 0
-395 398 0
-390 -393 397 0
-390 -394 398 0
-390 -395 399 0
-391 -393 398 0
-391 -394 399 0
-391 -395 400 0
-392 -393 399 0
-392 -394 400 0
-392 -395 401 0
-45 402 0
-44 402 0
-45 -44 403 0
-43 402 0
-45 -43 403 0
-44 -43 403 0
-45 -44 -43 404 0
-42 405 0
-41 405 0
-42 -41 406 0
-40 405 0
-42 -40 406 0
-41 -40 406 0
-42 -41 -40 407 0
-402 408 0
-403 409 0
-404 410 0
-405 408 0
-406 409 0
-407 410 0
-402 -405 409 0
-402 -406 410 0
-402 -407 411 0
-403 -405 410 0
-403 -406 411 0
-403 -407 412 0
-404 -405 411 0
-404 -406 412 0
-404 -407 413 0
-396 414 0
-398 415 0
-400 416 0
-408 414 0
-410 415 0
-412 416 0
-396 -408 415 0
-396 -410 416 0
-396 -412 417 0
-398 -408 416 0
-398 -410 417 0
-398 -412 418 0
-400 -408 417 0
-400 -410 418 0
-400 -412 419 0
-397 420 0
-399 421 0
-401 422 0
-409 420 0
-411 421 0
-413 422 0
-397 -409 421 0
-397 -411 422 0
-397 -413 423 0
-399 -409 422 0
-399 -411 423 0
-399 -413 424 0
-401 -409 423 0
-401 -411 424 0
-401 -413 425 0
-415 426 0
-420 426 0
-415 -420 427 0
-416 428 0
-421 428 0
-416 -421 429 0
-417 430 0
-422 430 0
-417 -422 431 0
-418 432 0
-423 432 0
-418 -423 433 0
-419 434 0
-424 434 0
-419 -424 435 0
-39 436 0
-38 436 0
-39 -38 437 0
-50 436 0
-39 -50 437 0
-38 -50 437 0
-39 -38 -50 438 0
-36 439 0
-35 439 0
-36 -35 440 0
-34 439 0
-36 -34 440 0
-35 -34 440 0
-36 -35 -34 441 0
-436 442 0
-437 443 0
-438 444 0
-439 442 0
-440 443 0
-441 444 0
-436 -439 443 0
-436 -440 444 0
-436 -441 445 0
-437 -439 444 0
-437 -440 445 0
-437 -441 446 0
-438 -439 445 0
-438 -440 446 0
-438 -441 447 0
-33 448 0
-32 448 0
-33 -32 449 0
-31 448 0
-33 -31 449 0
-32 -31 449 0
-33 -32 -31 450 0
-30 451 0
-29 451 0
-30 -29 452 0
-28 453 0
-27 453 0
-28 -27 454 0
-26 453 0
-28 -26 454 0
-27 -26 454 0
-28 -27 -26 455 0
-451 456 0
-452 457 0
-453 456 0
-454 457 0
-455 458 0
-451 -453 457 0
-451 -454 458 0
-451 -455 459 0
-452 -453 458 0
-452 -454 459 0
-452 -455 460 0
-448 461 0
-449 462 0
-450 463 0
-456 461 0
-457 462 0
-458 463 0
-459 464 0
-460 465 0
-448 -456 462 0
-448 -457 463 0
-448 -458 464 0
-448 -459 465 0
-448 -460 466 0
-449 -456 463 0
-449 -457 464 0
-449 -458 465 0
-449 -459 466 0
-449 -460 467 0
-450 -456 464 0
-450 -457 465 0
-450 -458 466 0
-450 -459 467 0
-450 -460 468 0
-442 469 0
-444 470 0
-446 471 0
-461 469 0
-463 470 0
-465 471 0
-467 472 0
-442 -461 470 0
-442 -463 471 0
-442 -465 472 0
-442 -467 473 0
-444 -461 471 0
-444 -463 472 0
-444 -465 473 0
-444 -467 474 0
-446 -461 472 0
-446 -463 473 0
-446 -465 474 0
-446 -467 475 0
-443 476 0
-445 477 0
-447 478 0
-462 476 0
-464 477 0
-466 478 0
-468 479 0
-443 -462 477 0
-443 -464 478 0
-443 -466 479 0
-443 -468 480 0
-445 -462 478 0
-445 -464 479 0
-445 -466 480 0
-445 -468 481 0
-447 -462 479 0
-447 -464 480 0
-447 -466 481 0
-447 -468 482 0
-470 483 0
-476 483 0
-470 -476 484 0
-471 485 0
-477 485 0
-471 -477 486 0
-472 487 0
-478 487 0
-472 -478 488 0
-473 489 0
-479 489 0
-473 -479 490 0
-474 491 0
-480 491 0
-474 -480 492 0
-475 493 0
-481 493 0
-475 -481 494 0
-414 495 0
-429 496 0
-433 497 0
-469 495 0
-486 496 0
-490 497 0
-494 498 0
-414 -469 496 0
-414 -486 497 0
-414 -490 498 0
-414 -494 499 0
-429 -469 497 0
-429 -486 498 0
-429 -490 499 0
-429 -494 500 0
-433 -469 498 0
-433 -486 499 0
-433 -490 500 0
-427 501 0
-431 502 0
-435 503 0
-484 501 0
-488 502 0
-492 503 0
-427 -484 502 0
-427 -488 503 0
-427 -492 504 0
-431 -484 503 0
-431 -488 504 0
-431 -492 505 0
-435 -484 504 0
-435 -488 505 0
-496 506 0
-501 506 0
-496 -501 507 0
-497 508 0
-502 508 0
-497 -502 509 0
-498 510 0
-503 510 0
-498 -503 511 0
-499 512 0
-504 512 0
-499 -504 513 0
-500 514 0
-505 514 0
-500 -505 515 0
-426 516 0
-430 517 0
-434 518 0
-483 516 0
-487 517 0
-491 518 0
-482 519 0
-426 -483 517 0
-426 -487 518 0
-426 -491 519 0
-426 -482 520 0
-430 -483 518 0
-430 -487 519 0
-430 -491 520 0
-430 -482 521 0
-434 -483 519 0
-434 -487 520 0
-434 -491 521 0
-428 522 0
-432 523 0
-425 524 0
-485 522 0
-489 523 0
-493 524 0
-428 -485 523 0
-428 -489 524 0
-428 -493 525 0
-432 -485 524 0
-432 -489 525 0
-432 -493 526 0
-425 -485 525 0
-425 -489 526 0
-517 527 0
-522 527 0
-517 -522 528 0
-518 529 0
-523 529 0
-518 -523 530 0
-519 531 0
-524 531 0
-519 -524 532 0
-520 533 0
-525 533 0
-520 -525 534 0
-521 535 0
-526 535 0
-506 536 0
-516 536 0
-506 -516 537 0
-507 538 0
-527 538 0
-507 -527 539 0
-508 540 0
-528 540 0
-508 -528 541 0
-509 542 0
-529 542 0
-509 -529 543 0
-510 544 0
-530 544 0
-510 -530 545 0
-511 546 0
-531 546 0
-511 -531 547 0
-512 548 0
-532 548 0
-512 -532 549 0
-513 550 0
-533 550 0
-513 -533 551 0
-514 552 0
-534 552 0
-514 -534 553 0
-515 554 0
-535 554 0
-515 -535 555 0
-368 556 0
-383 557 0
-387 558 0
-495 556 0
-539 557 0
-543 558 0
-547 559 0
-551 560 0
-555 561 0
-368 -495 557 0
-368 -539 558 0
-368 -543 559 0
-368 -547 560 0
-368 -551 561 0
-383 -495 558 0
-383 -539 559 0
-383 -543 560 0
-383 -547 561 0
-387 -495 559 0
-387 -539 560 0
-387 -543 561 0
-381 562 0
-385 563 0
-389 564 0
-537 562 0
-541 563 0
-545 564 0
-549 565 0
-553 566 0
-381 -537 563 0
-381 -541 564 0
-381 -545 565 0
-381 -549 566 0
-385 -537 564 0
-385 -541 565 0
-385 -545 566 0
-389 -537 565 0
-389 -541 566 0
-557 567 0
-562 567 0
-557 -562 568 0
-558 569 0
-563 569 0
-558 -563 570 0
-559 571 0
-564 571 0
-559 -564 572 0
-560 573 0
-565 573 0
-560 -565 574 0
-561 575 0
-566 575 0
-561 -566 576 0
-380 577 0
-384 578 0
-388 579 0
-536 577 0
-540 578 0
-544 579 0
-548 580 0
-552 581 0
-380 -536 578 0
-380 -540 579 0
-380 -544 580 0
-380 -548 581 0
-380 -552 582 0
-384 -536 579 0
-384 -540 580 0
-384 -544 581 0
-384 -548 582 0
-388 -536 580 0
-388 -540 581 0
-388 -544 582 0
-382 583 0
-386 584 0
-379 585 0
-538 583 0
-542 584 0
-546 585 0
-550 586 0
-554 587 0
-382 -538 584 0
-382 -542 585 0
-382 -546 586 0
-382 -550 587 0
-386 -538 585 0
-386 -542 586 0
-386 -546 587 0
-379 -538 586 0
-379 -542 587 0
-578 588 0
-583 588 0
-578 -583 589 0
-579 590 0
-584 590 0
-579 -584 591 0
-580 592 0
-585 592 0
-580 -585 593 0
-581 594 0
-586 594 0
-581 -586 595 0
-582 596 0
-587 596 0
-567 597 0
-577 597 0
-567 -577 598 0
-568 599 0
-588 599 0
-568 -588 600 0
-569 601 0
-589 601 0
-569 -589 602 0
-570 603 0
-590 603 0
-570 -590 604 0
-571 605 0
-591 605 0
-571 -591 606 0
-572 607 0
-592 607 0
-572 -592 608 0
-573 609 0
-593 609 0
-573 -593 610 0
-574 611 0
-594 611 0
-574 -594 612 0
-575 613 0
-595 613 0
-575 -595 614 0
-576 615 0
-596 615 0
-576 -596 616 0
-322 617 0
-337 618 0
-341 619 0
-556 617 0
-600 618 0
-604 619 0
-608 620 0
-612 621 0
-616 622 0
-322 -556 618 0
-322 -600 619 0
-322 -604 620 0
-322 -608 621 0
-322 -612 622 0
-337 -556 619 0
-337 -600 620 0
-337 -604 621 0
-337 -608 622 0
-341 -556 620 0
-341 -600 621 0
-341 -604 622 0
-335 623 0
-339 624 0
-343 625 0
-598 623 0
-602 624 0
-606 625 0
-610 626 0
-614 627 0
-335 -598 624 0
-335 -602 625 0
-335 -606 626 0
-335 -610 627 0
-339 -598 625 0
-339 -602 626 0
-339 -606 627 0
-343 -598 626 0
-343 -602 627 0
-618 628 0
-623 628 0
-618 -623 629 0
-619 630 0
-624 630 0
-619 -624 631 0
-620 632 0
-625 632 0
-620 -625 633 0
-621 634 0
-626 634 0
-621 -626 635 0
-622 636 0
-627 636 0
-622 -627 637 0
-334 638 0
-338 639 0
-342 640 0
-597 638 0
-601 639 0
-605 640 0
-609 641 0
-613 642 0
-334 -597 639 0
-334 -601 640 0
-334 -605 641 0
-334 -609 642 0
-334 -613 643 0
-338 -597 640 0
-338 -601 641 0
-338 -605 642 0
-338 -609 643 0
-342 -597 641 0
-342 -601 642 0
-342 -605 643 0
-336 644 0
-340 645 0
-333 646 0
-599 644 0
-603 645 0
-607 646 0
-611 647 0
-615 648 0
-336 -599 645 0
-336 -603 646 0
-336 -607 647 0
-336 -611 648 0
-340 -599 646 0
-340 -603 647 0
-340 -607 648 0
-333 -599 647 0
-333 -603 648 0
-639 649 0
-644 649 0
-639 -644 650 0
-640 651 0
-645 651 0
-640 -645 652 0
-641 653 0
-646 653 0
-641 -646 654 0
-642 655 0
-647 655 0
-642 -647 656 0
-643 657 0
-648 657 0
-628 658 0
-638 658 0
-628 -638 659 0
-629 660 0
-649 660 0
-629 -649 661 0
-630 662 0
-650 662 0
-630 -650 663 0
-631 664 0
-651 664 0
-631 -651 665 0
-632 666 0
-652 666 0
-632 -652 667 0
-633 668 0
-653 668 0
-633 -653 669 0
-634 670 0
-654 670 0
-634 -654 671 0
-635 672 0
-655 672 0
-635 -655 673 0
-636 674 0
-656 674 0
-636 -656 675 0
-637 676 0
-657 676 0
-637 -657 677 0
-677 0
